c nIsolatedPIs 80
c maxPI 176
p cnf 615 1318
c gate 177 60 148 0
60 -177 0
148 -177 0
-60 -148 177 0
c gate 178 -60 -148 0
-60 -178 0
-148 -178 0
60 148 178 0
c gate 179 59 147 0
59 -179 0
147 -179 0
-59 -147 179 0
c gate 180 -178 179 0
-178 -180 0
179 -180 0
178 -179 180 0
c gate 181 -177 -180 0
-177 -181 0
-180 -181 0
177 180 181 0
c gate 182 58 146 0
58 -182 0
146 -182 0
-58 -146 182 0
c gate 183 57 145 0
57 -183 0
145 -183 0
-57 -145 183 0
c gate 184 -182 -183 0
-182 -184 0
-183 -184 0
182 183 184 0
c gate 185 -58 -146 0
-58 -185 0
-146 -185 0
58 146 185 0
c gate 186 -59 -147 0
-59 -186 0
-147 -186 0
59 147 186 0
c gate 187 -178 -186 0
-178 -187 0
-186 -187 0
178 186 187 0
c gate 188 -185 187 0
-185 -188 0
187 -188 0
185 -187 188 0
c gate 189 181 188 0
181 -189 0
188 -189 0
-181 -188 189 0
c gate 190 -184 189 0
-184 -190 0
189 -190 0
184 -189 190 0
c gate 191 181 -190 0
181 -191 0
-190 -191 0
-181 190 191 0
c gate 192 -62 -150 0
-62 -192 0
-150 -192 0
62 150 192 0
c gate 193 -63 -151 0
-63 -193 0
-151 -193 0
63 151 193 0
c gate 194 -192 -193 0
-192 -194 0
-193 -194 0
192 193 194 0
c gate 195 63 151 0
63 -195 0
151 -195 0
-63 -151 195 0
c gate 196 64 152 0
64 -196 0
152 -196 0
-64 -152 196 0
c gate 197 -195 -196 0
-195 -197 0
-196 -197 0
195 196 197 0
c gate 198 -64 -152 0
-64 -198 0
-152 -198 0
64 152 198 0
c gate 199 197 -198 0
197 -199 0
-198 -199 0
-197 198 199 0
c gate 200 194 199 0
194 -200 0
199 -200 0
-194 -199 200 0
c gate 201 61 149 0
61 -201 0
149 -201 0
-61 -149 201 0
c gate 202 62 150 0
62 -202 0
150 -202 0
-62 -150 202 0
c gate 203 -201 -202 0
-201 -203 0
-202 -203 0
201 202 203 0
c gate 204 -61 -149 0
-61 -204 0
-149 -204 0
61 149 204 0
c gate 205 203 -204 0
203 -205 0
-204 -205 0
-203 204 205 0
c gate 206 200 205 0
200 -206 0
205 -206 0
-200 -205 206 0
c gate 207 -191 206 0
-191 -207 0
206 -207 0
191 -206 207 0
c gate 208 194 -203 0
194 -208 0
-203 -208 0
-194 203 208 0
c gate 209 197 -208 0
197 -209 0
-208 -209 0
-197 208 209 0
c gate 210 -198 -209 0
-198 -210 0
-209 -210 0
198 209 210 0
c gate 211 -207 -210 0
-207 -211 0
-210 -211 0
207 210 211 0
c gate 212 -56 -144 0
-56 -212 0
-144 -212 0
56 144 212 0
c gate 213 56 144 0
56 -213 0
144 -213 0
-56 -144 213 0
c gate 214 55 143 0
55 -214 0
143 -214 0
-55 -143 214 0
c gate 215 -213 -214 0
-213 -215 0
-214 -215 0
213 214 215 0
c gate 216 -55 -143 0
-55 -216 0
-143 -216 0
55 143 216 0
c gate 217 -54 -142 0
-54 -217 0
-142 -217 0
54 142 217 0
c gate 218 -216 -217 0
-216 -218 0
-217 -218 0
216 217 218 0
c gate 219 54 142 0
54 -219 0
142 -219 0
-54 -142 219 0
c gate 220 53 141 0
53 -220 0
141 -220 0
-53 -141 220 0
c gate 221 -219 -220 0
-219 -221 0
-220 -221 0
219 220 221 0
c gate 222 -53 -141 0
-53 -222 0
-141 -222 0
53 141 222 0
c gate 223 49 137 0
49 -223 0
137 -223 0
-49 -137 223 0
c gate 224 50 138 0
50 -224 0
138 -224 0
-50 -138 224 0
c gate 225 -223 -224 0
-223 -225 0
-224 -225 0
223 224 225 0
c gate 226 -51 -139 0
-51 -226 0
-139 -226 0
51 139 226 0
c gate 227 -50 -138 0
-50 -227 0
-138 -227 0
50 138 227 0
c gate 228 -52 -140 0
-52 -228 0
-140 -228 0
52 140 228 0
c gate 229 -227 -228 0
-227 -229 0
-228 -229 0
227 228 229 0
c gate 230 -226 229 0
-226 -230 0
229 -230 0
226 -229 230 0
c gate 231 -225 230 0
-225 -231 0
230 -231 0
225 -230 231 0
c gate 232 52 140 0
52 -232 0
140 -232 0
-52 -140 232 0
c gate 233 51 139 0
51 -233 0
139 -233 0
-51 -139 233 0
c gate 234 -228 233 0
-228 -234 0
233 -234 0
228 -233 234 0
c gate 235 -232 -234 0
-232 -235 0
-234 -235 0
232 234 235 0
c gate 236 -231 235 0
-231 -236 0
235 -236 0
231 -235 236 0
c gate 237 -222 -236 0
-222 -237 0
-236 -237 0
222 236 237 0
c gate 238 221 -237 0
221 -238 0
-237 -238 0
-221 237 238 0
c gate 239 218 -238 0
218 -239 0
-238 -239 0
-218 238 239 0
c gate 240 215 -239 0
215 -240 0
-239 -240 0
-215 239 240 0
c gate 241 -212 -240 0
-212 -241 0
-240 -241 0
212 240 241 0
c gate 242 215 218 0
215 -242 0
218 -242 0
-215 -218 242 0
c gate 243 221 225 0
221 -243 0
225 -243 0
-221 -225 243 0
c gate 244 242 243 0
242 -244 0
243 -244 0
-242 -243 244 0
c gate 245 -49 -137 0
-49 -245 0
-137 -245 0
49 137 245 0
c gate 246 -212 -222 0
-212 -246 0
-222 -246 0
212 222 246 0
c gate 247 -245 246 0
-245 -247 0
246 -247 0
245 -246 247 0
c gate 248 230 247 0
230 -248 0
247 -248 0
-230 -247 248 0
c gate 249 235 248 0
235 -249 0
248 -249 0
-235 -248 249 0
c gate 250 244 249 0
244 -250 0
249 -250 0
-244 -249 250 0
c gate 251 -40 -128 0
-40 -251 0
-128 -251 0
40 128 251 0
c gate 252 38 126 0
38 -252 0
126 -252 0
-38 -126 252 0
c gate 253 37 125 0
37 -253 0
125 -253 0
-37 -125 253 0
c gate 254 -252 -253 0
-252 -254 0
-253 -254 0
252 253 254 0
c gate 255 -39 -127 0
-39 -255 0
-127 -255 0
39 127 255 0
c gate 256 -38 -126 0
-38 -256 0
-126 -256 0
38 126 256 0
c gate 257 -255 -256 0
-255 -257 0
-256 -257 0
255 256 257 0
c gate 258 -254 257 0
-254 -258 0
257 -258 0
254 -257 258 0
c gate 259 39 127 0
39 -259 0
127 -259 0
-39 -127 259 0
c gate 260 40 128 0
40 -260 0
128 -260 0
-40 -128 260 0
c gate 261 -259 -260 0
-259 -261 0
-260 -261 0
259 260 261 0
c gate 262 -258 261 0
-258 -262 0
261 -262 0
258 -261 262 0
c gate 263 -251 -262 0
-251 -263 0
-262 -263 0
251 262 263 0
c gate 264 -37 -125 0
-37 -264 0
-125 -264 0
37 125 264 0
c gate 265 -251 -264 0
-251 -265 0
-264 -265 0
251 264 265 0
c gate 266 257 265 0
257 -266 0
265 -266 0
-257 -265 266 0
c gate 267 262 266 0
262 -267 0
266 -267 0
-262 -266 267 0
c gate 268 36 124 0
36 -268 0
124 -268 0
-36 -124 268 0
c gate 269 -36 -124 0
-36 -269 0
-124 -269 0
36 124 269 0
c gate 270 35 123 0
35 -270 0
123 -270 0
-35 -123 270 0
c gate 271 -269 270 0
-269 -271 0
270 -271 0
269 -270 271 0
c gate 272 -268 -271 0
-268 -272 0
-271 -272 0
268 271 272 0
c gate 273 -35 -123 0
-35 -273 0
-123 -273 0
35 123 273 0
c gate 274 -269 -273 0
-269 -274 0
-273 -274 0
269 273 274 0
c gate 275 272 274 0
272 -275 0
274 -275 0
-272 -274 275 0
c gate 276 34 122 0
34 -276 0
122 -276 0
-34 -122 276 0
c gate 277 33 121 0
33 -277 0
121 -277 0
-33 -121 277 0
c gate 278 -276 -277 0
-276 -278 0
-277 -278 0
276 277 278 0
c gate 279 -34 -122 0
-34 -279 0
-122 -279 0
34 122 279 0
c gate 280 -278 -279 0
-278 -280 0
-279 -280 0
278 279 280 0
c gate 281 275 280 0
275 -281 0
280 -281 0
-275 -280 281 0
c gate 282 272 -281 0
272 -282 0
-281 -282 0
-272 281 282 0
c gate 283 267 -282 0
267 -283 0
-282 -283 0
-267 282 283 0
c gate 284 -263 -283 0
-263 -284 0
-283 -284 0
263 283 284 0
c gate 285 -33 -121 0
-33 -285 0
-121 -285 0
33 121 285 0
c gate 286 -279 -285 0
-279 -286 0
-285 -286 0
279 285 286 0
c gate 287 278 286 0
278 -287 0
286 -287 0
-278 -286 287 0
c gate 288 275 287 0
275 -288 0
287 -288 0
-275 -287 288 0
c gate 289 267 288 0
267 -289 0
288 -289 0
-267 -288 289 0
c gate 290 -32 -120 0
-32 -290 0
-120 -290 0
32 120 290 0
c gate 291 32 120 0
32 -291 0
120 -291 0
-32 -120 291 0
c gate 292 31 119 0
31 -292 0
119 -292 0
-31 -119 292 0
c gate 293 -291 -292 0
-291 -293 0
-292 -293 0
291 292 293 0
c gate 294 -31 -119 0
-31 -294 0
-119 -294 0
31 119 294 0
c gate 295 -30 -118 0
-30 -295 0
-118 -295 0
30 118 295 0
c gate 296 -294 -295 0
-294 -296 0
-295 -296 0
294 295 296 0
c gate 297 30 118 0
30 -297 0
118 -297 0
-30 -118 297 0
c gate 298 29 117 0
29 -298 0
117 -298 0
-29 -117 298 0
c gate 299 -297 -298 0
-297 -299 0
-298 -299 0
297 298 299 0
c gate 300 -29 -117 0
-29 -300 0
-117 -300 0
29 117 300 0
c gate 301 28 116 0
28 -301 0
116 -301 0
-28 -116 301 0
c gate 302 -28 -116 0
-28 -302 0
-116 -302 0
28 116 302 0
c gate 303 27 -302 0
27 -303 0
-302 -303 0
-27 302 303 0
c gate 304 115 303 0
115 -304 0
303 -304 0
-115 -303 304 0
c gate 305 -301 -304 0
-301 -305 0
-304 -305 0
301 304 305 0
c gate 306 115 -302 0
115 -306 0
-302 -306 0
-115 302 306 0
c gate 307 -303 -306 0
-303 -307 0
-306 -307 0
303 306 307 0
c gate 308 25 113 0
25 -308 0
113 -308 0
-25 -113 308 0
c gate 309 26 114 0
26 -309 0
114 -309 0
-26 -114 309 0
c gate 310 -308 -309 0
-308 -310 0
-309 -310 0
308 309 310 0
c gate 311 -26 -114 0
-26 -311 0
-114 -311 0
26 114 311 0
c gate 312 -310 -311 0
-310 -312 0
-311 -312 0
310 311 312 0
c gate 313 -307 312 0
-307 -313 0
312 -313 0
307 -312 313 0
c gate 314 305 -313 0
305 -314 0
-313 -314 0
-305 313 314 0
c gate 315 -300 -314 0
-300 -315 0
-314 -315 0
300 314 315 0
c gate 316 299 -315 0
299 -316 0
-315 -316 0
-299 315 316 0
c gate 317 296 -316 0
296 -317 0
-316 -317 0
-296 316 317 0
c gate 318 293 -317 0
293 -318 0
-317 -318 0
-293 317 318 0
c gate 319 -290 -318 0
-290 -319 0
-318 -319 0
290 318 319 0
c gate 320 293 310 0
293 -320 0
310 -320 0
-293 -310 320 0
c gate 321 296 299 0
296 -321 0
299 -321 0
-296 -299 321 0
c gate 322 320 321 0
320 -322 0
321 -322 0
-320 -321 322 0
c gate 323 -300 -311 0
-300 -323 0
-311 -323 0
300 311 323 0
c gate 324 -25 -113 0
-25 -324 0
-113 -324 0
25 113 324 0
c gate 325 -290 -324 0
-290 -325 0
-324 -325 0
290 324 325 0
c gate 326 323 325 0
323 -326 0
325 -326 0
-323 -325 326 0
c gate 327 -307 326 0
-307 -327 0
326 -327 0
307 -326 327 0
c gate 328 322 327 0
322 -328 0
327 -328 0
-322 -327 328 0
c gate 329 305 328 0
305 -329 0
328 -329 0
-305 -328 329 0
c gate 330 2 90 0
2 -330 0
90 -330 0
-2 -90 330 0
c gate 331 1 89 0
1 -331 0
89 -331 0
-1 -89 331 0
c gate 332 -330 -331 0
-330 -332 0
-331 -332 0
330 331 332 0
c gate 333 -3 -91 0
-3 -333 0
-91 -333 0
3 91 333 0
c gate 334 -2 -90 0
-2 -334 0
-90 -334 0
2 90 334 0
c gate 335 -333 -334 0
-333 -335 0
-334 -335 0
333 334 335 0
c gate 336 -332 335 0
-332 -336 0
335 -336 0
332 -335 336 0
c gate 337 4 92 0
4 -337 0
92 -337 0
-4 -92 337 0
c gate 338 3 91 0
3 -338 0
91 -338 0
-3 -91 338 0
c gate 339 -337 -338 0
-337 -339 0
-338 -339 0
337 338 339 0
c gate 340 -336 339 0
-336 -340 0
339 -340 0
336 -339 340 0
c gate 341 -4 -92 0
-4 -341 0
-92 -341 0
4 92 341 0
c gate 342 -5 -93 0
-5 -342 0
-93 -342 0
5 93 342 0
c gate 343 -341 -342 0
-341 -343 0
-342 -343 0
341 342 343 0
c gate 344 -340 343 0
-340 -344 0
343 -344 0
340 -343 344 0
c gate 345 6 94 0
6 -345 0
94 -345 0
-6 -94 345 0
c gate 346 5 93 0
5 -346 0
93 -346 0
-5 -93 346 0
c gate 347 -345 -346 0
-345 -347 0
-346 -347 0
345 346 347 0
c gate 348 -344 347 0
-344 -348 0
347 -348 0
344 -347 348 0
c gate 349 -7 -95 0
-7 -349 0
-95 -349 0
7 95 349 0
c gate 350 -6 -94 0
-6 -350 0
-94 -350 0
6 94 350 0
c gate 351 -349 -350 0
-349 -351 0
-350 -351 0
349 350 351 0
c gate 352 -348 351 0
-348 -352 0
351 -352 0
348 -351 352 0
c gate 353 8 96 0
8 -353 0
96 -353 0
-8 -96 353 0
c gate 354 7 95 0
7 -354 0
95 -354 0
-7 -95 354 0
c gate 355 -353 -354 0
-353 -355 0
-354 -355 0
353 354 355 0
c gate 356 -352 355 0
-352 -356 0
355 -356 0
352 -355 356 0
c gate 357 -9 -97 0
-9 -357 0
-97 -357 0
9 97 357 0
c gate 358 -8 -96 0
-8 -358 0
-96 -358 0
8 96 358 0
c gate 359 -357 -358 0
-357 -359 0
-358 -359 0
357 358 359 0
c gate 360 -356 359 0
-356 -360 0
359 -360 0
356 -359 360 0
c gate 361 10 98 0
10 -361 0
98 -361 0
-10 -98 361 0
c gate 362 9 97 0
9 -362 0
97 -362 0
-9 -97 362 0
c gate 363 -361 -362 0
-361 -363 0
-362 -363 0
361 362 363 0
c gate 364 -360 363 0
-360 -364 0
363 -364 0
360 -363 364 0
c gate 365 -10 -98 0
-10 -365 0
-98 -365 0
10 98 365 0
c gate 366 -12 -100 0
-12 -366 0
-100 -366 0
12 100 366 0
c gate 367 -11 -99 0
-11 -367 0
-99 -367 0
11 99 367 0
c gate 368 -366 -367 0
-366 -368 0
-367 -368 0
366 367 368 0
c gate 369 -365 368 0
-365 -369 0
368 -369 0
365 -368 369 0
c gate 370 -364 369 0
-364 -370 0
369 -370 0
364 -369 370 0
c gate 371 12 100 0
12 -371 0
100 -371 0
-12 -100 371 0
c gate 372 11 99 0
11 -372 0
99 -372 0
-11 -99 372 0
c gate 373 -366 372 0
-366 -373 0
372 -373 0
366 -372 373 0
c gate 374 -371 -373 0
-371 -374 0
-373 -374 0
371 373 374 0
c gate 375 -370 374 0
-370 -375 0
374 -375 0
370 -374 375 0
c gate 376 -14 -102 0
-14 -376 0
-102 -376 0
14 102 376 0
c gate 377 -15 -103 0
-15 -377 0
-103 -377 0
15 103 377 0
c gate 378 -376 -377 0
-376 -378 0
-377 -378 0
376 377 378 0
c gate 379 14 102 0
14 -379 0
102 -379 0
-14 -102 379 0
c gate 380 13 101 0
13 -380 0
101 -380 0
-13 -101 380 0
c gate 381 -379 -380 0
-379 -381 0
-380 -381 0
379 380 381 0
c gate 382 -13 -101 0
-13 -382 0
-101 -382 0
13 101 382 0
c gate 383 381 -382 0
381 -383 0
-382 -383 0
-381 382 383 0
c gate 384 378 383 0
378 -384 0
383 -384 0
-378 -383 384 0
c gate 385 -375 384 0
-375 -385 0
384 -385 0
375 -384 385 0
c gate 386 378 -381 0
378 -386 0
-381 -386 0
-378 381 386 0
c gate 387 15 103 0
15 -387 0
103 -387 0
-15 -103 387 0
c gate 388 16 104 0
16 -388 0
104 -388 0
-16 -104 388 0
c gate 389 -387 -388 0
-387 -389 0
-388 -389 0
387 388 389 0
c gate 390 -386 389 0
-386 -390 0
389 -390 0
386 -389 390 0
c gate 391 -385 390 0
-385 -391 0
390 -391 0
385 -390 391 0
c gate 392 -20 -108 0
-20 -392 0
-108 -392 0
20 108 392 0
c gate 393 19 -392 0
19 -393 0
-392 -393 0
-19 392 393 0
c gate 394 107 -392 0
107 -394 0
-392 -394 0
-107 392 394 0
c gate 395 -393 -394 0
-393 -395 0
-394 -395 0
393 394 395 0
c gate 396 -17 -105 0
-17 -396 0
-105 -396 0
17 105 396 0
c gate 397 -16 -104 0
-16 -397 0
-104 -397 0
16 104 397 0
c gate 398 -21 -109 0
-21 -398 0
-109 -398 0
21 109 398 0
c gate 399 -397 -398 0
-397 -399 0
-398 -399 0
397 398 399 0
c gate 400 -396 399 0
-396 -400 0
399 -400 0
396 -399 400 0
c gate 401 22 110 0
22 -401 0
110 -401 0
-22 -110 401 0
c gate 402 21 109 0
21 -402 0
109 -402 0
-21 -109 402 0
c gate 403 -401 -402 0
-401 -403 0
-402 -403 0
401 402 403 0
c gate 404 -24 -112 0
-24 -404 0
-112 -404 0
24 112 404 0
c gate 405 -18 -106 0
-18 -405 0
-106 -405 0
18 106 405 0
c gate 406 -404 -405 0
-404 -406 0
-405 -406 0
404 405 406 0
c gate 407 403 406 0
403 -407 0
406 -407 0
-403 -406 407 0
c gate 408 400 407 0
400 -408 0
407 -408 0
-400 -407 408 0
c gate 409 -395 408 0
-395 -409 0
408 -409 0
395 -408 409 0
c gate 410 20 108 0
20 -410 0
108 -410 0
-20 -108 410 0
c gate 411 107 393 0
107 -411 0
393 -411 0
-107 -393 411 0
c gate 412 -410 -411 0
-410 -412 0
-411 -412 0
410 411 412 0
c gate 413 17 105 0
17 -413 0
105 -413 0
-17 -105 413 0
c gate 414 18 106 0
18 -414 0
106 -414 0
-18 -106 414 0
c gate 415 -413 -414 0
-413 -415 0
-414 -415 0
413 414 415 0
c gate 416 -23 -111 0
-23 -416 0
-111 -416 0
23 111 416 0
c gate 417 -22 -110 0
-22 -417 0
-110 -417 0
22 110 417 0
c gate 418 -416 -417 0
-416 -418 0
-417 -418 0
416 417 418 0
c gate 419 24 112 0
24 -419 0
112 -419 0
-24 -112 419 0
c gate 420 23 111 0
23 -420 0
111 -420 0
-23 -111 420 0
c gate 421 -419 -420 0
-419 -421 0
-420 -421 0
419 420 421 0
c gate 422 418 421 0
418 -422 0
421 -422 0
-418 -421 422 0
c gate 423 415 422 0
415 -423 0
422 -423 0
-415 -422 423 0
c gate 424 412 423 0
412 -424 0
423 -424 0
-412 -423 424 0
c gate 425 409 424 0
409 -425 0
424 -425 0
-409 -424 425 0
c gate 426 -391 425 0
-391 -426 0
425 -426 0
391 -425 426 0
c gate 427 -405 -415 0
-405 -427 0
-415 -427 0
405 415 427 0
c gate 428 -395 427 0
-395 -428 0
427 -428 0
395 -427 428 0
c gate 429 412 -428 0
412 -429 0
-428 -429 0
-412 428 429 0
c gate 430 -398 -429 0
-398 -430 0
-429 -430 0
398 429 430 0
c gate 431 403 -430 0
403 -431 0
-430 -431 0
-403 430 431 0
c gate 432 418 -431 0
418 -432 0
-431 -432 0
-418 431 432 0
c gate 433 421 -432 0
421 -433 0
-432 -433 0
-421 432 433 0
c gate 434 -404 -433 0
-404 -434 0
-433 -434 0
404 433 434 0
c gate 435 -426 -434 0
-426 -435 0
-434 -435 0
426 434 435 0
c gate 436 329 -435 0
329 -436 0
-435 -436 0
-329 435 436 0
c gate 437 -319 -436 0
-319 -437 0
-436 -437 0
319 436 437 0
c gate 438 289 -437 0
289 -438 0
-437 -438 0
-289 437 438 0
c gate 439 284 -438 0
284 -439 0
-438 -439 0
-284 438 439 0
c gate 440 48 136 0
48 -440 0
136 -440 0
-48 -136 440 0
c gate 441 -48 -136 0
-48 -441 0
-136 -441 0
48 136 441 0
c gate 442 47 135 0
47 -442 0
135 -442 0
-47 -135 442 0
c gate 443 -441 442 0
-441 -443 0
442 -443 0
441 -442 443 0
c gate 444 -440 -443 0
-440 -444 0
-443 -444 0
440 443 444 0
c gate 445 -46 -134 0
-46 -445 0
-134 -445 0
46 134 445 0
c gate 446 -47 -135 0
-47 -446 0
-135 -446 0
47 135 446 0
c gate 447 -441 -446 0
-441 -447 0
-446 -447 0
441 446 447 0
c gate 448 -445 447 0
-445 -448 0
447 -448 0
445 -447 448 0
c gate 449 444 448 0
444 -449 0
448 -449 0
-444 -448 449 0
c gate 450 -45 -133 0
-45 -450 0
-133 -450 0
45 133 450 0
c gate 451 46 134 0
46 -451 0
134 -451 0
-46 -134 451 0
c gate 452 45 133 0
45 -452 0
133 -452 0
-45 -133 452 0
c gate 453 -451 -452 0
-451 -453 0
-452 -453 0
451 452 453 0
c gate 454 -450 453 0
-450 -454 0
453 -454 0
450 -453 454 0
c gate 455 449 454 0
449 -455 0
454 -455 0
-449 -454 455 0
c gate 456 44 132 0
44 -456 0
132 -456 0
-44 -132 456 0
c gate 457 -44 -132 0
-44 -457 0
-132 -457 0
44 132 457 0
c gate 458 43 131 0
43 -458 0
131 -458 0
-43 -131 458 0
c gate 459 -457 458 0
-457 -459 0
458 -459 0
457 -458 459 0
c gate 460 -456 -459 0
-456 -460 0
-459 -460 0
456 459 460 0
c gate 461 -42 -130 0
-42 -461 0
-130 -461 0
42 130 461 0
c gate 462 -43 -131 0
-43 -462 0
-131 -462 0
43 131 462 0
c gate 463 -457 -462 0
-457 -463 0
-462 -463 0
457 462 463 0
c gate 464 -461 463 0
-461 -464 0
463 -464 0
461 -463 464 0
c gate 465 460 464 0
460 -465 0
464 -465 0
-460 -464 465 0
c gate 466 -41 -129 0
-41 -466 0
-129 -466 0
41 129 466 0
c gate 467 42 130 0
42 -467 0
130 -467 0
-42 -130 467 0
c gate 468 41 129 0
41 -468 0
129 -468 0
-41 -129 468 0
c gate 469 -467 -468 0
-467 -469 0
-468 -469 0
467 468 469 0
c gate 470 -466 469 0
-466 -470 0
469 -470 0
466 -469 470 0
c gate 471 465 470 0
465 -471 0
470 -471 0
-465 -470 471 0
c gate 472 455 471 0
455 -472 0
471 -472 0
-455 -471 472 0
c gate 473 -439 472 0
-439 -473 0
472 -473 0
439 -472 473 0
c gate 474 465 -469 0
465 -474 0
-469 -474 0
-465 469 474 0
c gate 475 460 -474 0
460 -475 0
-474 -475 0
-460 474 475 0
c gate 476 455 -475 0
455 -476 0
-475 -476 0
-455 475 476 0
c gate 477 449 -453 0
449 -477 0
-453 -477 0
-449 453 477 0
c gate 478 444 -477 0
444 -478 0
-477 -478 0
-444 477 478 0
c gate 479 -476 478 0
-476 -479 0
478 -479 0
476 -478 479 0
c gate 480 -473 479 0
-473 -480 0
479 -480 0
473 -479 480 0
c gate 481 250 -480 0
250 -481 0
-480 -481 0
-250 480 481 0
c gate 482 -241 -481 0
-241 -482 0
-481 -482 0
241 481 482 0
c gate 483 -57 -145 0
-57 -483 0
-145 -483 0
57 145 483 0
c gate 484 184 -483 0
184 -484 0
-483 -484 0
-184 483 484 0
c gate 485 189 484 0
189 -485 0
484 -485 0
-189 -484 485 0
c gate 486 206 485 0
206 -486 0
485 -486 0
-206 -485 486 0
c gate 487 -482 486 0
-482 -487 0
486 -487 0
482 -486 487 0
c gate 488 211 -487 0
211 -488 0
-487 -488 0
-211 487 488 0
c gate 489 68 156 0
68 -489 0
156 -489 0
-68 -156 489 0
c gate 490 -68 -156 0
-68 -490 0
-156 -490 0
68 156 490 0
c gate 491 67 155 0
67 -491 0
155 -491 0
-67 -155 491 0
c gate 492 -490 491 0
-490 -492 0
491 -492 0
490 -491 492 0
c gate 493 -489 -492 0
-489 -493 0
-492 -493 0
489 492 493 0
c gate 494 -66 -154 0
-66 -494 0
-154 -494 0
66 154 494 0
c gate 495 -67 -155 0
-67 -495 0
-155 -495 0
67 155 495 0
c gate 496 -490 -495 0
-490 -496 0
-495 -496 0
490 495 496 0
c gate 497 -494 496 0
-494 -497 0
496 -497 0
494 -496 497 0
c gate 498 493 497 0
493 -498 0
497 -498 0
-493 -497 498 0
c gate 499 -65 -153 0
-65 -499 0
-153 -499 0
65 153 499 0
c gate 500 66 154 0
66 -500 0
154 -500 0
-66 -154 500 0
c gate 501 65 153 0
65 -501 0
153 -501 0
-65 -153 501 0
c gate 502 -500 -501 0
-500 -502 0
-501 -502 0
500 501 502 0
c gate 503 -499 502 0
-499 -503 0
502 -503 0
499 -502 503 0
c gate 504 498 503 0
498 -504 0
503 -504 0
-498 -503 504 0
c gate 505 72 160 0
72 -505 0
160 -505 0
-72 -160 505 0
c gate 506 71 159 0
71 -506 0
159 -506 0
-71 -159 506 0
c gate 507 -505 -506 0
-505 -507 0
-506 -507 0
505 506 507 0
c gate 508 -72 -160 0
-72 -508 0
-160 -508 0
72 160 508 0
c gate 509 -71 -159 0
-71 -509 0
-159 -509 0
71 159 509 0
c gate 510 -508 -509 0
-508 -510 0
-509 -510 0
508 509 510 0
c gate 511 507 510 0
507 -511 0
510 -511 0
-507 -510 511 0
c gate 512 69 157 0
69 -512 0
157 -512 0
-69 -157 512 0
c gate 513 70 158 0
70 -513 0
158 -513 0
-70 -158 513 0
c gate 514 -512 -513 0
-512 -514 0
-513 -514 0
512 513 514 0
c gate 515 -69 -157 0
-69 -515 0
-157 -515 0
69 157 515 0
c gate 516 -70 -158 0
-70 -516 0
-158 -516 0
70 158 516 0
c gate 517 -515 -516 0
-515 -517 0
-516 -517 0
515 516 517 0
c gate 518 514 517 0
514 -518 0
517 -518 0
-514 -517 518 0
c gate 519 511 518 0
511 -519 0
518 -519 0
-511 -518 519 0
c gate 520 504 519 0
504 -520 0
519 -520 0
-504 -519 520 0
c gate 521 -488 520 0
-488 -521 0
520 -521 0
488 -520 521 0
c gate 522 76 164 0
76 -522 0
164 -522 0
-76 -164 522 0
c gate 523 -76 -164 0
-76 -523 0
-164 -523 0
76 164 523 0
c gate 524 75 -523 0
75 -524 0
-523 -524 0
-75 523 524 0
c gate 525 163 524 0
163 -525 0
524 -525 0
-163 -524 525 0
c gate 526 -522 -525 0
-522 -526 0
-525 -526 0
522 525 526 0
c gate 527 73 161 0
73 -527 0
161 -527 0
-73 -161 527 0
c gate 528 74 162 0
74 -528 0
162 -528 0
-74 -162 528 0
c gate 529 -527 -528 0
-527 -529 0
-528 -529 0
527 528 529 0
c gate 530 80 168 0
80 -530 0
168 -530 0
-80 -168 530 0
c gate 531 79 167 0
79 -531 0
167 -531 0
-79 -167 531 0
c gate 532 -530 -531 0
-530 -532 0
-531 -532 0
530 531 532 0
c gate 533 529 532 0
529 -533 0
532 -533 0
-529 -532 533 0
c gate 534 -79 -167 0
-79 -534 0
-167 -534 0
79 167 534 0
c gate 535 -78 -166 0
-78 -535 0
-166 -535 0
78 166 535 0
c gate 536 -534 -535 0
-534 -536 0
-535 -536 0
534 535 536 0
c gate 537 78 166 0
78 -537 0
166 -537 0
-78 -166 537 0
c gate 538 77 165 0
77 -538 0
165 -538 0
-77 -165 538 0
c gate 539 -537 -538 0
-537 -539 0
-538 -539 0
537 538 539 0
c gate 540 536 539 0
536 -540 0
539 -540 0
-536 -539 540 0
c gate 541 533 540 0
533 -541 0
540 -541 0
-533 -540 541 0
c gate 542 163 -523 0
163 -542 0
-523 -542 0
-163 523 542 0
c gate 543 -524 -542 0
-524 -543 0
-542 -543 0
524 542 543 0
c gate 544 -77 -165 0
-77 -544 0
-165 -544 0
77 165 544 0
c gate 545 -74 -162 0
-74 -545 0
-162 -545 0
74 162 545 0
c gate 546 -544 -545 0
-544 -546 0
-545 -546 0
544 545 546 0
c gate 547 -80 -168 0
-80 -547 0
-168 -547 0
80 168 547 0
c gate 548 -73 -161 0
-73 -548 0
-161 -548 0
73 161 548 0
c gate 549 -547 -548 0
-547 -549 0
-548 -549 0
547 548 549 0
c gate 550 546 549 0
546 -550 0
549 -550 0
-546 -549 550 0
c gate 551 -543 550 0
-543 -551 0
550 -551 0
543 -550 551 0
c gate 552 541 551 0
541 -552 0
551 -552 0
-541 -551 552 0
c gate 553 526 552 0
526 -553 0
552 -553 0
-526 -552 553 0
c gate 554 521 553 0
521 -554 0
553 -554 0
-521 -553 554 0
c gate 555 498 -502 0
498 -555 0
-502 -555 0
-498 502 555 0
c gate 556 493 -555 0
493 -556 0
-555 -556 0
-493 555 556 0
c gate 557 519 -556 0
519 -557 0
-556 -557 0
-519 556 557 0
c gate 558 -507 -508 0
-507 -558 0
-508 -558 0
507 508 558 0
c gate 559 -514 -516 0
-514 -559 0
-516 -559 0
514 516 559 0
c gate 560 511 559 0
511 -560 0
559 -560 0
-511 -559 560 0
c gate 561 -558 -560 0
-558 -561 0
-560 -561 0
558 560 561 0
c gate 562 -557 561 0
-557 -562 0
561 -562 0
557 -561 562 0
c gate 563 553 -562 0
553 -563 0
-562 -563 0
-553 562 563 0
c gate 564 -529 -545 0
-529 -564 0
-545 -564 0
529 545 564 0
c gate 565 -543 564 0
-543 -565 0
564 -565 0
543 -564 565 0
c gate 566 526 -565 0
526 -566 0
-565 -566 0
-526 565 566 0
c gate 567 -544 -566 0
-544 -567 0
-566 -567 0
544 566 567 0
c gate 568 539 -567 0
539 -568 0
-567 -568 0
-539 567 568 0
c gate 569 536 -568 0
536 -569 0
-568 -569 0
-536 568 569 0
c gate 570 532 -569 0
532 -570 0
-569 -570 0
-532 569 570 0
c gate 571 -547 -570 0
-547 -571 0
-570 -571 0
547 570 571 0
c gate 572 -563 -571 0
-563 -572 0
-571 -572 0
563 571 572 0
c gate 573 -554 572 0
-554 -573 0
572 -573 0
554 -572 573 0
c gate 574 84 172 0
84 -574 0
172 -574 0
-84 -172 574 0
c gate 575 -84 -172 0
-84 -575 0
-172 -575 0
84 172 575 0
c gate 576 83 171 0
83 -576 0
171 -576 0
-83 -171 576 0
c gate 577 -575 576 0
-575 -577 0
576 -577 0
575 -576 577 0
c gate 578 -574 -577 0
-574 -578 0
-577 -578 0
574 577 578 0
c gate 579 -82 -170 0
-82 -579 0
-170 -579 0
82 170 579 0
c gate 580 -83 -171 0
-83 -580 0
-171 -580 0
83 171 580 0
c gate 581 -575 -580 0
-575 -581 0
-580 -581 0
575 580 581 0
c gate 582 -579 581 0
-579 -582 0
581 -582 0
579 -581 582 0
c gate 583 578 582 0
578 -583 0
582 -583 0
-578 -582 583 0
c gate 584 -81 -169 0
-81 -584 0
-169 -584 0
81 169 584 0
c gate 585 82 170 0
82 -585 0
170 -585 0
-82 -170 585 0
c gate 586 81 169 0
81 -586 0
169 -586 0
-81 -169 586 0
c gate 587 -585 -586 0
-585 -587 0
-586 -587 0
585 586 587 0
c gate 588 -584 587 0
-584 -588 0
587 -588 0
584 -587 588 0
c gate 589 583 588 0
583 -589 0
588 -589 0
-583 -588 589 0
c gate 590 88 176 0
88 -590 0
176 -590 0
-88 -176 590 0
c gate 591 -88 -176 0
-88 -591 0
-176 -591 0
88 176 591 0
c gate 592 87 175 0
87 -592 0
175 -592 0
-87 -175 592 0
c gate 593 -591 592 0
-591 -593 0
592 -593 0
591 -592 593 0
c gate 594 -590 -593 0
-590 -594 0
-593 -594 0
590 593 594 0
c gate 595 -86 -174 0
-86 -595 0
-174 -595 0
86 174 595 0
c gate 596 -87 -175 0
-87 -596 0
-175 -596 0
87 175 596 0
c gate 597 -595 -596 0
-595 -597 0
-596 -597 0
595 596 597 0
c gate 598 -591 597 0
-591 -598 0
597 -598 0
591 -597 598 0
c gate 599 594 598 0
594 -599 0
598 -599 0
-594 -598 599 0
c gate 600 86 174 0
86 -600 0
174 -600 0
-86 -174 600 0
c gate 601 85 173 0
85 -601 0
173 -601 0
-85 -173 601 0
c gate 602 -600 -601 0
-600 -602 0
-601 -602 0
600 601 602 0
c gate 603 -85 -173 0
-85 -603 0
-173 -603 0
85 173 603 0
c gate 604 602 -603 0
602 -604 0
-603 -604 0
-602 603 604 0
c gate 605 599 604 0
599 -605 0
604 -605 0
-599 -604 605 0
c gate 606 589 605 0
589 -606 0
605 -606 0
-589 -605 606 0
c gate 607 -573 606 0
-573 -607 0
606 -607 0
573 -606 607 0
c gate 608 571 589 0
571 -608 0
589 -608 0
-571 -589 608 0
c gate 609 583 -587 0
583 -609 0
-587 -609 0
-583 587 609 0
c gate 610 578 -609 0
578 -610 0
-609 -610 0
-578 609 610 0
c gate 611 -608 610 0
-608 -611 0
610 -611 0
608 -610 611 0
c gate 612 -603 -611 0
-603 -612 0
-611 -612 0
603 611 612 0
c gate 613 602 -612 0
602 -613 0
-612 -613 0
-602 612 613 0
c gate 614 -595 -613 0
-595 -614 0
-613 -614 0
595 613 614 0
c gate 615 607 614 0
607 -615 0
614 -615 0
-607 -614 615 0
c PO
615 0
